(set-info :smt-lib-version 2.6)
(set-logic QF_UF)
(set-info :source |
CADE ATP System competition. See http://www.cs.miami.edu/~tptp/CASC
 for more information. 

This benchmark was obtained by trying to find a finite model of a first-order 
formula (Albert Oliveras).
|)
(set-info :category "crafted")
(set-info :status unsat)
(declare-sort U 0)
(declare-fun p10 (U U) Bool)
(declare-fun p9 (U) Bool)
(declare-fun f16 (U U U) U)
(declare-fun p3 (U) Bool)
(declare-fun f2 (U U) U)
(declare-fun p4 (U) Bool)
(declare-fun f7 (U) U)
(declare-fun p1 (U U) Bool)
(declare-fun f12 (U) U)
(declare-fun c18 () U)
(declare-fun p14 (U U U) Bool)
(declare-fun f17 (U U U) U)
(declare-fun f13 (U U U) U)
(declare-fun f6 (U) U)
(declare-fun f5 (U) U)
(declare-fun f11 (U) U)
(declare-fun p15 (U U) Bool)
(declare-fun c8 () U)
(declare-fun c_0 () U)
(declare-fun c_1 () U)
(assert (let ((_let_1 (f11 c_1))) (let ((_let_2 (f11 c_0))) (let ((_let_3 (f5 c_1))) (let ((_let_4 (f5 c_0))) (let ((_let_5 (f6 c_1))) (let ((_let_6 (f6 c_0))) (let ((_let_7 (f12 c_1))) (let ((_let_8 (f12 c_0))) (let ((_let_9 (f7 c_1))) (let ((_let_10 (f7 c_0))) (let ((_let_11 (f2 c_1 c_1))) (let ((_let_12 (f2 c_1 c_0))) (let ((_let_13 (f2 c_0 c_1))) (let ((_let_14 (f2 c_0 c_0))) (let ((_let_15 (f13 c_1 c_1 c_1))) (let ((_let_16 (f13 c_1 c_1 c_0))) (let ((_let_17 (f13 c_1 c_0 c_1))) (let ((_let_18 (f13 c_1 c_0 c_0))) (let ((_let_19 (f13 c_0 c_1 c_1))) (let ((_let_20 (f13 c_0 c_1 c_0))) (let ((_let_21 (f13 c_0 c_0 c_1))) (let ((_let_22 (f13 c_0 c_0 c_0))) (let ((_let_23 (f17 c_1 c_1 c_1))) (let ((_let_24 (f17 c_1 c_1 c_0))) (let ((_let_25 (f17 c_1 c_0 c_1))) (let ((_let_26 (f17 c_1 c_0 c_0))) (let ((_let_27 (f17 c_0 c_1 c_1))) (let ((_let_28 (f17 c_0 c_1 c_0))) (let ((_let_29 (f17 c_0 c_0 c_1))) (let ((_let_30 (f17 c_0 c_0 c_0))) (let ((_let_31 (f16 c_1 c_1 c_1))) (let ((_let_32 (f16 c_1 c_1 c_0))) (let ((_let_33 (f16 c_1 c_0 c_1))) (let ((_let_34 (f16 c_1 c_0 c_0))) (let ((_let_35 (f16 c_0 c_1 c_1))) (let ((_let_36 (f16 c_0 c_1 c_0))) (let ((_let_37 (f16 c_0 c_0 c_1))) (let ((_let_38 (f16 c_0 c_0 c_0))) (let ((_let_39 (not (p4 c_1)))) (let ((_let_40 (not (p4 c_0)))) (let ((_let_41 (= c_1 c_1))) (let ((_let_42 (not (p3 c_1)))) (let ((_let_43 (p14 c_1 c_1 c_1))) (let ((_let_44 (= c_1 c_0))) (let ((_let_45 (not (p3 c_0)))) (let ((_let_46 (p14 c_1 c_1 c_0))) (let ((_let_47 (= c_0 c_1))) (let ((_let_48 (p14 c_1 c_0 c_1))) (let ((_let_49 (= c_0 c_0))) (let ((_let_50 (p14 c_1 c_0 c_0))) (let ((_let_51 (p14 c_0 c_1 c_1))) (let ((_let_52 (p14 c_0 c_1 c_0))) (let ((_let_53 (p14 c_0 c_0 c_1))) (let ((_let_54 (p14 c_0 c_0 c_0))) (let ((_let_55 (p1 c_1 _let_23))) (let ((_let_56 (not _let_43))) (let ((_let_57 (p1 c_1 _let_25))) (let ((_let_58 (not _let_48))) (let ((_let_59 (p1 c_1 _let_24))) (let ((_let_60 (not _let_46))) (let ((_let_61 (not _let_50))) (let ((_let_62 (not _let_51))) (let ((_let_63 (p1 c_0 _let_29))) (let ((_let_64 (not _let_53))) (let ((_let_65 (p1 c_0 _let_28))) (let ((_let_66 (not _let_52))) (let ((_let_67 (p1 c_0 _let_30))) (let ((_let_68 (not _let_54))) (let ((_let_69 (not (p10 c_1 c_1)))) (let ((_let_70 (not (p9 c_1)))) (let ((_let_71 (not (p10 c_0 c_1)))) (let ((_let_72 (not (p10 c_1 c_0)))) (let ((_let_73 (not (p9 c_0)))) (let ((_let_74 (not (p10 c_0 c_0)))) (let ((_let_75 (p10 c_1 _let_15))) (let ((_let_76 (p10 c_1 _let_17))) (let ((_let_77 (p10 c_0 _let_18))) (let ((_let_78 (p10 c_1 _let_19))) (let ((_let_79 (p10 c_0 _let_20))) (let ((_let_80 (p10 c_0 _let_22))) (let ((_let_81 (p10 c_1 _let_16))) (let ((_let_82 (p10 c_0 _let_21))) (let ((_let_83 (not (p10 c_1 c18)))) (let ((_let_84 (not (p10 c_0 c18)))) (let ((_let_85 (or _let_42 _let_41 _let_42 (p1 c_1 _let_11)))) (let ((_let_86 (or _let_45 _let_49 _let_45 (p1 c_0 _let_14)))) (let ((_let_87 (p1 c_0 _let_26))) (let ((_let_88 (p1 c_1 _let_27))) (let ((_let_89 (not (p1 c_1 c_1)))) (let ((_let_90 (not (p1 c_1 c_0)))) (let ((_let_91 (not (p1 c_0 c_1)))) (let ((_let_92 (not (p1 c_0 c_0)))) (let ((_let_93 (p10 _let_31 c_1))) (let ((_let_94 (p10 _let_32 c_1))) (let ((_let_95 (p10 _let_37 c_0))) (let ((_let_96 (p10 _let_38 c_0))) (let ((_let_97 (p15 c_1 c_1))) (let ((_let_98 (p15 c_1 c_0))) (let ((_let_99 (p15 c_0 c_1))) (let ((_let_100 (p15 c_0 c_0))) (and (distinct c_0 c_1) (or _let_74 _let_73 (not (= c_0 _let_38)) _let_49 _let_45 _let_74 _let_73) (or _let_74 _let_73 (not (= c_0 _let_34)) _let_44 _let_45 _let_71 _let_70) (or _let_71 _let_70 (not (= c_0 _let_36)) _let_47 _let_45 _let_74 _let_73) (or _let_71 _let_70 (not (= c_0 _let_32)) _let_41 _let_45 _let_71 _let_70) (or _let_72 _let_73 (not (= c_1 _let_37)) _let_49 _let_42 _let_72 _let_73) (or _let_72 _let_73 (not (= c_1 _let_33)) _let_44 _let_42 _let_69 _let_70) (or _let_69 _let_70 (not (= c_1 _let_35)) _let_47 _let_42 _let_72 _let_73) (or _let_69 _let_70 (not (= c_1 _let_31)) _let_41 _let_42 _let_69 _let_70) (or _let_45 _let_45 (p4 _let_14) _let_49) (or _let_45 _let_42 (p4 _let_12) _let_44) (or _let_42 _let_45 (p4 _let_13) _let_47) (or _let_42 _let_42 (p4 _let_11) _let_41) (or (p3 _let_10) _let_40) (or (p3 _let_9) _let_39) _let_86 (or _let_45 _let_47 _let_42 (p1 c_0 _let_13)) (or _let_42 _let_44 _let_45 (p1 c_1 _let_12)) _let_85 (or (p3 _let_8) _let_73) (or (p3 _let_7) _let_70) (or (not (p1 _let_10 c_0)) _let_40) (or (not (p1 _let_9 c_1)) _let_39) (or _let_96 _let_49 _let_73 _let_73 _let_74 _let_74 _let_45) (or _let_95 _let_49 _let_73 _let_73 _let_72 _let_72 _let_42) (or (p10 _let_36 c_0) _let_47 _let_73 _let_70 _let_71 _let_74 _let_45) (or (p10 _let_35 c_0) _let_47 _let_73 _let_70 _let_69 _let_72 _let_42) (or (p10 _let_34 c_1) _let_44 _let_70 _let_73 _let_74 _let_71 _let_45) (or (p10 _let_33 c_1) _let_44 _let_70 _let_73 _let_72 _let_69 _let_42) (or _let_94 _let_41 _let_70 _let_70 _let_71 _let_71 _let_45) (or _let_93 _let_41 _let_70 _let_70 _let_69 _let_69 _let_42) (p9 c18) (or (not (p10 _let_8 c_0)) _let_73) (or (not (p10 _let_7 c_1)) _let_70) (or _let_74 _let_73 _let_74 _let_49 _let_73 _let_45 (p3 _let_38)) (or _let_74 _let_70 _let_71 _let_47 _let_73 _let_45 (p3 _let_36)) (or _let_71 _let_73 _let_74 _let_44 _let_70 _let_45 (p3 _let_34)) (or _let_71 _let_70 _let_71 _let_41 _let_70 _let_45 (p3 _let_32)) (or _let_72 _let_73 _let_72 _let_49 _let_73 _let_42 (p3 _let_37)) (or _let_72 _let_70 _let_69 _let_47 _let_73 _let_42 (p3 _let_35)) (or _let_69 _let_73 _let_72 _let_44 _let_70 _let_42 (p3 _let_33)) (or _let_69 _let_70 _let_69 _let_41 _let_70 _let_42 (p3 _let_31)) (or _let_49 _let_68 _let_49 _let_45 _let_49 _let_45 (p4 _let_30) _let_45) (or _let_49 _let_64 _let_47 _let_45 _let_47 _let_42 (p4 _let_29) _let_45) (or _let_47 _let_66 _let_49 _let_42 _let_44 _let_45 (p4 _let_28) _let_45) (or _let_47 _let_62 _let_47 _let_42 _let_41 _let_42 (p4 _let_27) _let_45) (or _let_44 _let_61 _let_44 _let_45 _let_49 _let_45 (p4 _let_26) _let_42) (or _let_44 _let_58 _let_41 _let_45 _let_47 _let_42 (p4 _let_25) _let_42) (or _let_41 _let_60 _let_44 _let_42 _let_44 _let_45 (p4 _let_24) _let_42) (or _let_41 _let_56 _let_41 _let_42 _let_41 _let_42 (p4 _let_23) _let_42) (or _let_49 _let_80 _let_45 _let_54 _let_49 _let_45 _let_45 _let_49) (or _let_49 _let_82 _let_45 _let_53 _let_47 _let_45 _let_42 _let_47) (or _let_47 (p10 c_1 _let_20) _let_42 _let_52 _let_44 _let_45 _let_45 _let_49) (or _let_47 _let_78 _let_42 _let_51 _let_41 _let_45 _let_42 _let_47) (or _let_44 _let_77 _let_45 _let_50 _let_49 _let_42 _let_45 _let_44) (or _let_44 (p10 c_0 _let_17) _let_45 _let_48 _let_47 _let_42 _let_42 _let_41) (or _let_41 _let_81 _let_42 _let_46 _let_44 _let_42 _let_45 _let_44) (or _let_41 _let_75 _let_42 _let_43 _let_41 _let_42 _let_42 _let_41) (or _let_40 (p1 _let_6 c_0)) (or _let_39 (p1 _let_5 c_1)) (or (p1 _let_4 c_0) _let_40) (or (p1 _let_3 c_1) _let_39) (or (p3 _let_6) _let_40) (or (p3 _let_5) _let_39) (or (p3 _let_4) _let_40) (or (p3 _let_3) _let_39) (or _let_45 _let_67 _let_45 _let_49 _let_49 _let_49 _let_68 _let_45) (or _let_45 _let_63 _let_45 _let_49 _let_47 _let_47 _let_64 _let_42) (or _let_45 _let_87 _let_42 _let_44 _let_49 _let_44 _let_61 _let_45) (or _let_45 (p1 c_0 _let_25) _let_42 _let_44 _let_47 _let_41 _let_58 _let_42) (or _let_42 (p1 c_1 _let_28) _let_45 _let_47 _let_44 _let_49 _let_66 _let_45) (or _let_42 _let_88 _let_45 _let_47 _let_41 _let_47 _let_62 _let_42) (or _let_42 _let_59 _let_42 _let_41 _let_44 _let_44 _let_60 _let_45) (or _let_42 _let_55 _let_42 _let_41 _let_41 _let_41 _let_56 _let_42) (or (p3 _let_2) _let_73) (or (p3 _let_1) _let_70) (or _let_73 (p10 _let_2 c_0)) (or _let_70 (p10 _let_1 c_1)) (or _let_100 _let_45 _let_74 _let_92 _let_92 _let_73 _let_49 _let_45 _let_74 _let_40) (or _let_100 _let_45 _let_74 _let_92 _let_90 _let_73 _let_47 _let_42 _let_72 _let_40) (or _let_100 _let_42 _let_72 _let_90 _let_92 _let_73 _let_44 _let_45 _let_74 _let_40) (or _let_100 _let_42 _let_72 _let_90 _let_90 _let_73 _let_41 _let_42 _let_72 _let_40) (or _let_99 _let_45 _let_71 _let_92 _let_92 _let_70 _let_49 _let_45 _let_71 _let_40) (or _let_99 _let_45 _let_71 _let_92 _let_90 _let_70 _let_47 _let_42 _let_69 _let_40) (or _let_99 _let_42 _let_69 _let_90 _let_92 _let_70 _let_44 _let_45 _let_71 _let_40) (or _let_99 _let_42 _let_69 _let_90 _let_90 _let_70 _let_41 _let_42 _let_69 _let_40) (or _let_98 _let_45 _let_74 _let_91 _let_91 _let_73 _let_49 _let_45 _let_74 _let_39) (or _let_98 _let_45 _let_74 _let_91 _let_89 _let_73 _let_47 _let_42 _let_72 _let_39) (or _let_98 _let_42 _let_72 _let_89 _let_91 _let_73 _let_44 _let_45 _let_74 _let_39) (or _let_98 _let_42 _let_72 _let_89 _let_89 _let_73 _let_41 _let_42 _let_72 _let_39) (or _let_97 _let_45 _let_71 _let_91 _let_91 _let_70 _let_49 _let_45 _let_71 _let_39) (or _let_97 _let_45 _let_71 _let_91 _let_89 _let_70 _let_47 _let_42 _let_69 _let_39) (or _let_97 _let_42 _let_69 _let_89 _let_91 _let_70 _let_44 _let_45 _let_71 _let_39) (or _let_97 _let_42 _let_69 _let_89 _let_89 _let_70 _let_41 _let_42 _let_69 _let_39) (or _let_96 _let_45 _let_74 _let_73 _let_73 _let_49 _let_74) (or _let_95 _let_42 _let_72 _let_73 _let_73 _let_49 _let_72) (or (p10 _let_36 c_1) _let_45 _let_71 _let_70 _let_73 _let_47 _let_74) (or (p10 _let_35 c_1) _let_42 _let_69 _let_70 _let_73 _let_47 _let_72) (or (p10 _let_34 c_0) _let_45 _let_74 _let_73 _let_70 _let_44 _let_71) (or (p10 _let_33 c_0) _let_42 _let_72 _let_73 _let_70 _let_44 _let_69) (or _let_94 _let_45 _let_71 _let_70 _let_70 _let_41 _let_71) (or _let_93 _let_42 _let_69 _let_70 _let_70 _let_41 _let_69) (or _let_92 _let_49 _let_45 _let_54 _let_45 _let_92 _let_92 _let_45 _let_49 _let_40 _let_49) (or _let_92 _let_49 _let_42 _let_52 _let_45 _let_92 _let_90 _let_45 _let_47 _let_40 _let_44) (or _let_92 _let_47 _let_45 _let_53 _let_45 _let_90 _let_92 _let_42 _let_49 _let_40 _let_47) (or _let_92 _let_47 _let_42 _let_51 _let_45 _let_90 _let_90 _let_42 _let_47 _let_40 _let_41) (or _let_91 _let_49 _let_45 _let_54 _let_45 _let_91 _let_91 _let_45 _let_49 _let_39 _let_49) (or _let_91 _let_49 _let_42 _let_52 _let_45 _let_91 _let_89 _let_45 _let_47 _let_39 _let_44) (or _let_91 _let_47 _let_45 _let_53 _let_45 _let_89 _let_91 _let_42 _let_49 _let_39 _let_47) (or _let_91 _let_47 _let_42 _let_51 _let_45 _let_89 _let_89 _let_42 _let_47 _let_39 _let_41) (or _let_90 _let_44 _let_45 _let_50 _let_42 _let_92 _let_92 _let_45 _let_44 _let_40 _let_49) (or _let_90 _let_44 _let_42 _let_46 _let_42 _let_92 _let_90 _let_45 _let_41 _let_40 _let_44) (or _let_90 _let_41 _let_45 _let_48 _let_42 _let_90 _let_92 _let_42 _let_44 _let_40 _let_47) (or _let_90 _let_41 _let_42 _let_43 _let_42 _let_90 _let_90 _let_42 _let_41 _let_40 _let_41) (or _let_89 _let_44 _let_45 _let_50 _let_42 _let_91 _let_91 _let_45 _let_44 _let_39 _let_49) (or _let_89 _let_44 _let_42 _let_46 _let_42 _let_91 _let_89 _let_45 _let_41 _let_39 _let_44) (or _let_89 _let_41 _let_45 _let_48 _let_42 _let_89 _let_91 _let_42 _let_44 _let_39 _let_47) (or _let_89 _let_41 _let_42 _let_43 _let_42 _let_89 _let_89 _let_42 _let_41 _let_39 _let_41) (or _let_45 _let_40 _let_45 _let_92 _let_49 _let_92 _let_49 _let_92 _let_40 _let_92) (or _let_45 _let_40 _let_45 _let_92 _let_47 _let_92 _let_49 _let_91 _let_39 _let_91) (or _let_45 _let_40 _let_42 _let_90 _let_49 _let_92 _let_44 _let_90 _let_40 _let_92) (or _let_45 _let_40 _let_42 _let_90 _let_47 _let_92 _let_44 _let_89 _let_39 _let_91) (or _let_45 _let_39 _let_45 _let_91 _let_44 _let_91 _let_49 _let_92 _let_40 _let_92) (or _let_45 _let_39 _let_45 _let_91 _let_41 _let_91 _let_49 _let_91 _let_39 _let_91) (or _let_45 _let_39 _let_42 _let_89 _let_44 _let_91 _let_44 _let_90 _let_40 _let_92) (or _let_45 _let_39 _let_42 _let_89 _let_41 _let_91 _let_44 _let_89 _let_39 _let_91) (or _let_42 _let_40 _let_45 _let_92 _let_49 _let_90 _let_47 _let_92 _let_40 _let_90) (or _let_42 _let_40 _let_45 _let_92 _let_47 _let_90 _let_47 _let_91 _let_39 _let_89) (or _let_42 _let_40 _let_42 _let_90 _let_49 _let_90 _let_41 _let_90 _let_40 _let_90) (or _let_42 _let_40 _let_42 _let_90 _let_47 _let_90 _let_41 _let_89 _let_39 _let_89) (or _let_42 _let_39 _let_45 _let_91 _let_44 _let_89 _let_47 _let_92 _let_40 _let_90) (or _let_42 _let_39 _let_45 _let_91 _let_41 _let_89 _let_47 _let_91 _let_39 _let_89) (or _let_42 _let_39 _let_42 _let_89 _let_44 _let_89 _let_41 _let_90 _let_40 _let_90) (or _let_42 _let_39 _let_42 _let_89 _let_41 _let_89 _let_41 _let_89 _let_39 _let_89) (or _let_68 _let_49 _let_67 _let_45 _let_49 _let_45 _let_45 _let_49) (or _let_64 _let_49 (p1 c_1 _let_29) _let_45 _let_47 _let_42 _let_45 _let_47) (or _let_66 _let_47 _let_65 _let_42 _let_44 _let_45 _let_45 _let_49) (or _let_62 _let_47 _let_88 _let_42 _let_41 _let_42 _let_45 _let_47) (or _let_61 _let_44 _let_87 _let_45 _let_49 _let_45 _let_42 _let_44) (or _let_58 _let_44 _let_57 _let_45 _let_47 _let_42 _let_42 _let_41) (or _let_60 _let_41 (p1 c_0 _let_24) _let_42 _let_44 _let_45 _let_42 _let_44) (or _let_56 _let_41 _let_55 _let_42 _let_41 _let_42 _let_42 _let_41) (p4 c8) _let_86 (or _let_45 _let_47 _let_42 (p1 c_1 _let_13)) (or _let_42 _let_44 _let_45 (p1 c_0 _let_12)) _let_85 (or _let_49 _let_49 _let_84 _let_45 _let_45 _let_49 _let_84 _let_54 _let_45 _let_84) (or _let_49 _let_44 _let_84 _let_45 _let_42 _let_44 _let_84 _let_50 _let_45 _let_83) (or _let_47 _let_47 _let_84 _let_45 _let_45 _let_49 _let_83 _let_53 _let_42 _let_84) (or _let_47 _let_41 _let_84 _let_45 _let_42 _let_44 _let_83 _let_48 _let_42 _let_83) (or _let_44 _let_49 _let_83 _let_42 _let_45 _let_47 _let_84 _let_52 _let_45 _let_84) (or _let_44 _let_44 _let_83 _let_42 _let_42 _let_41 _let_84 _let_46 _let_45 _let_83) (or _let_41 _let_47 _let_83 _let_42 _let_45 _let_47 _let_83 _let_51 _let_42 _let_84) (or _let_41 _let_41 _let_83 _let_42 _let_42 _let_41 _let_83 _let_43 _let_42 _let_83) (or _let_49 _let_45 _let_80 _let_49 _let_54 _let_49 _let_45 _let_45) (or _let_49 _let_42 _let_82 _let_47 _let_53 _let_47 _let_45 _let_45) (or _let_47 _let_45 _let_79 _let_49 _let_52 _let_44 _let_42 _let_45) (or _let_47 _let_42 (p10 c_0 _let_19) _let_47 _let_51 _let_41 _let_42 _let_45) (or _let_44 _let_45 (p10 c_1 _let_18) _let_44 _let_50 _let_49 _let_45 _let_42) (or _let_44 _let_42 _let_76 _let_41 _let_48 _let_47 _let_45 _let_42) (or _let_41 _let_45 _let_81 _let_44 _let_46 _let_44 _let_42 _let_42) (or _let_41 _let_42 _let_75 _let_41 _let_43 _let_41 _let_42 _let_42) (or _let_54 _let_49 _let_49 _let_45 _let_45 _let_80 _let_45 _let_49) (or _let_53 _let_49 _let_47 _let_45 _let_45 (p10 c_1 _let_21) _let_42 _let_47) (or _let_52 _let_47 _let_44 _let_45 _let_42 _let_79 _let_45 _let_49) (or _let_51 _let_47 _let_41 _let_45 _let_42 _let_78 _let_42 _let_47) (or _let_50 _let_44 _let_49 _let_42 _let_45 _let_77 _let_45 _let_44) (or _let_48 _let_44 _let_47 _let_42 _let_45 _let_76 _let_42 _let_41) (or _let_46 _let_41 _let_44 _let_42 _let_42 (p10 c_0 _let_16) _let_45 _let_44) (or _let_43 _let_41 _let_41 _let_42 _let_42 _let_75 _let_42 _let_41) (or _let_49 _let_73 _let_74 _let_74 _let_45 _let_74 _let_45 _let_74 _let_54 _let_73 _let_74 _let_74 _let_49 _let_49 _let_49 _let_45) (or _let_49 _let_73 _let_74 _let_74 _let_45 _let_72 _let_42 _let_72 _let_52 _let_73 _let_74 _let_74 _let_49 _let_44 _let_47 _let_45) (or _let_49 _let_73 _let_74 _let_72 _let_42 _let_74 _let_45 _let_74 _let_53 _let_73 _let_72 _let_74 _let_47 _let_47 _let_49 _let_45) (or _let_49 _let_73 _let_74 _let_72 _let_42 _let_72 _let_42 _let_72 _let_51 _let_73 _let_72 _let_74 _let_47 _let_41 _let_47 _let_45) (or _let_49 _let_73 _let_72 _let_74 _let_45 _let_74 _let_45 _let_74 _let_50 _let_73 _let_74 _let_72 _let_44 _let_49 _let_44 _let_42) (or _let_49 _let_73 _let_72 _let_74 _let_45 _let_72 _let_42 _let_72 _let_46 _let_73 _let_74 _let_72 _let_44 _let_44 _let_41 _let_42) (or _let_49 _let_73 _let_72 _let_72 _let_42 _let_74 _let_45 _let_74 _let_48 _let_73 _let_72 _let_72 _let_41 _let_47 _let_44 _let_42) (or _let_49 _let_73 _let_72 _let_72 _let_42 _let_72 _let_42 _let_72 _let_43 _let_73 _let_72 _let_72 _let_41 _let_41 _let_41 _let_42) (or _let_47 _let_70 _let_71 _let_74 _let_45 _let_71 _let_45 _let_74 _let_54 _let_73 _let_71 _let_74 _let_49 _let_49 _let_49 _let_45) (or _let_47 _let_70 _let_71 _let_74 _let_45 _let_69 _let_42 _let_72 _let_52 _let_73 _let_71 _let_74 _let_49 _let_44 _let_47 _let_45) (or _let_47 _let_70 _let_71 _let_72 _let_42 _let_71 _let_45 _let_74 _let_53 _let_73 _let_69 _let_74 _let_47 _let_47 _let_49 _let_45) (or _let_47 _let_70 _let_71 _let_72 _let_42 _let_69 _let_42 _let_72 _let_51 _let_73 _let_69 _let_74 _let_47 _let_41 _let_47 _let_45) (or _let_47 _let_70 _let_69 _let_74 _let_45 _let_71 _let_45 _let_74 _let_50 _let_73 _let_71 _let_72 _let_44 _let_49 _let_44 _let_42) (or _let_47 _let_70 _let_69 _let_74 _let_45 _let_69 _let_42 _let_72 _let_46 _let_73 _let_71 _let_72 _let_44 _let_44 _let_41 _let_42) (or _let_47 _let_70 _let_69 _let_72 _let_42 _let_71 _let_45 _let_74 _let_48 _let_73 _let_69 _let_72 _let_41 _let_47 _let_44 _let_42) (or _let_47 _let_70 _let_69 _let_72 _let_42 _let_69 _let_42 _let_72 _let_43 _let_73 _let_69 _let_72 _let_41 _let_41 _let_41 _let_42) (or _let_44 _let_73 _let_74 _let_71 _let_45 _let_74 _let_45 _let_71 _let_54 _let_70 _let_74 _let_71 _let_49 _let_49 _let_49 _let_45) (or _let_44 _let_73 _let_74 _let_71 _let_45 _let_72 _let_42 _let_69 _let_52 _let_70 _let_74 _let_71 _let_49 _let_44 _let_47 _let_45) (or _let_44 _let_73 _let_74 _let_69 _let_42 _let_74 _let_45 _let_71 _let_53 _let_70 _let_72 _let_71 _let_47 _let_47 _let_49 _let_45) (or _let_44 _let_73 _let_74 _let_69 _let_42 _let_72 _let_42 _let_69 _let_51 _let_70 _let_72 _let_71 _let_47 _let_41 _let_47 _let_45) (or _let_44 _let_73 _let_72 _let_71 _let_45 _let_74 _let_45 _let_71 _let_50 _let_70 _let_74 _let_69 _let_44 _let_49 _let_44 _let_42) (or _let_44 _let_73 _let_72 _let_71 _let_45 _let_72 _let_42 _let_69 _let_46 _let_70 _let_74 _let_69 _let_44 _let_44 _let_41 _let_42) (or _let_44 _let_73 _let_72 _let_69 _let_42 _let_74 _let_45 _let_71 _let_48 _let_70 _let_72 _let_69 _let_41 _let_47 _let_44 _let_42) (or _let_44 _let_73 _let_72 _let_69 _let_42 _let_72 _let_42 _let_69 _let_43 _let_70 _let_72 _let_69 _let_41 _let_41 _let_41 _let_42) (or _let_41 _let_70 _let_71 _let_71 _let_45 _let_71 _let_45 _let_71 _let_54 _let_70 _let_71 _let_71 _let_49 _let_49 _let_49 _let_45) (or _let_41 _let_70 _let_71 _let_71 _let_45 _let_69 _let_42 _let_69 _let_52 _let_70 _let_71 _let_71 _let_49 _let_44 _let_47 _let_45) (or _let_41 _let_70 _let_71 _let_69 _let_42 _let_71 _let_45 _let_71 _let_53 _let_70 _let_69 _let_71 _let_47 _let_47 _let_49 _let_45) (or _let_41 _let_70 _let_71 _let_69 _let_42 _let_69 _let_42 _let_69 _let_51 _let_70 _let_69 _let_71 _let_47 _let_41 _let_47 _let_45) (or _let_41 _let_70 _let_69 _let_71 _let_45 _let_71 _let_45 _let_71 _let_50 _let_70 _let_71 _let_69 _let_44 _let_49 _let_44 _let_42) (or _let_41 _let_70 _let_69 _let_71 _let_45 _let_69 _let_42 _let_69 _let_46 _let_70 _let_71 _let_69 _let_44 _let_44 _let_41 _let_42) (or _let_41 _let_70 _let_69 _let_69 _let_42 _let_71 _let_45 _let_71 _let_48 _let_70 _let_69 _let_69 _let_41 _let_47 _let_44 _let_42) (or _let_41 _let_70 _let_69 _let_69 _let_42 _let_69 _let_42 _let_69 _let_43 _let_70 _let_69 _let_69 _let_41 _let_41 _let_41 _let_42) (or _let_49 _let_45 _let_68 _let_49 _let_45 _let_49 _let_45 _let_67) (or _let_49 _let_45 _let_66 _let_44 _let_45 _let_47 _let_42 _let_65) (or _let_47 _let_45 _let_64 _let_47 _let_42 _let_49 _let_45 _let_63) (or _let_47 _let_45 _let_62 _let_41 _let_42 _let_47 _let_42 (p1 c_0 _let_27)) (or _let_44 _let_42 _let_61 _let_49 _let_45 _let_44 _let_45 (p1 c_1 _let_26)) (or _let_44 _let_42 _let_60 _let_44 _let_45 _let_41 _let_42 _let_59) (or _let_41 _let_42 _let_58 _let_47 _let_42 _let_44 _let_45 _let_57) (or _let_41 _let_42 _let_56 _let_41 _let_42 _let_41 _let_42 _let_55) (or _let_54 _let_45 _let_49 _let_49 _let_45 (p9 _let_22) _let_45 _let_49) (or _let_53 _let_42 _let_47 _let_47 _let_45 (p9 _let_21) _let_45 _let_49) (or _let_52 _let_45 _let_44 _let_49 _let_42 (p9 _let_20) _let_45 _let_47) (or _let_51 _let_42 _let_41 _let_47 _let_42 (p9 _let_19) _let_45 _let_47) (or _let_50 _let_45 _let_49 _let_44 _let_45 (p9 _let_18) _let_42 _let_44) (or _let_48 _let_42 _let_47 _let_41 _let_45 (p9 _let_17) _let_42 _let_44) (or _let_46 _let_45 _let_44 _let_44 _let_42 (p9 _let_16) _let_42 _let_41) (or _let_43 _let_42 _let_41 _let_41 _let_42 (p9 _let_15) _let_42 _let_41) (or (not (= _let_4 _let_6)) _let_40) (or (not (= _let_3 _let_5)) _let_39) (or (= _let_38 c_0) (= _let_38 c_1)) (or (= _let_37 c_0) (= _let_37 c_1)) (or (= _let_36 c_0) (= _let_36 c_1)) (or (= _let_35 c_0) (= _let_35 c_1)) (or (= _let_34 c_0) (= _let_34 c_1)) (or (= _let_33 c_0) (= _let_33 c_1)) (or (= _let_32 c_0) (= _let_32 c_1)) (or (= _let_31 c_0) (= _let_31 c_1)) (or (= _let_30 c_0) (= _let_30 c_1)) (or (= _let_29 c_0) (= _let_29 c_1)) (or (= _let_28 c_0) (= _let_28 c_1)) (or (= _let_27 c_0) (= _let_27 c_1)) (or (= _let_26 c_0) (= _let_26 c_1)) (or (= _let_25 c_0) (= _let_25 c_1)) (or (= _let_24 c_0) (= _let_24 c_1)) (or (= _let_23 c_0) (= _let_23 c_1)) (or (= _let_22 c_0) (= _let_22 c_1)) (or (= _let_21 c_0) (= _let_21 c_1)) (or (= _let_20 c_0) (= _let_20 c_1)) (or (= _let_19 c_0) (= _let_19 c_1)) (or (= _let_18 c_0) (= _let_18 c_1)) (or (= _let_17 c_0) (= _let_17 c_1)) (or (= _let_16 c_0) (= _let_16 c_1)) (or (= _let_15 c_0) (= _let_15 c_1)) (or (= _let_14 c_0) (= _let_14 c_1)) (or (= _let_13 c_0) (= _let_13 c_1)) (or (= _let_12 c_0) (= _let_12 c_1)) (or (= _let_11 c_0) (= _let_11 c_1)) (or (= _let_10 c_0) (= _let_10 c_1)) (or (= _let_9 c_0) (= _let_9 c_1)) (or (= _let_8 c_0) (= _let_8 c_1)) (or (= _let_7 c_0) (= _let_7 c_1)) (or (= _let_6 c_0) (= _let_6 c_1)) (or (= _let_5 c_0) (= _let_5 c_1)) (or (= _let_4 c_0) (= _let_4 c_1)) (or (= _let_3 c_0) (= _let_3 c_1)) (or (= _let_2 c_0) (= _let_2 c_1)) (or (= _let_1 c_0) (= _let_1 c_1)) (or (= c18 c_0) (= c18 c_1)) (or (= c8 c_0) (= c8 c_1))))))))))))))))))))))))))))))))))))))))))))))))))))))))))))))))))))))))))))))))))))))))))))))))))))))))
(check-sat)
(exit)
